100
8 48
26 37
9 37
29 20
5 35
17 80
16 32
25 53
22 74
20 11
5 8
8 61
26 55
8 16
24 5
23 73
12 22
29 1
2 74
19 81
1 17
21 37
12 19
23 16
28 26
27 5
26 83
0 5
13 52
20 8
3 17
1 63
25 96
0 3
14 39
18 31
10 45
24 10
26 63
19 10
15 54
19 76
13 34
18 79
19 7
26 48
22 73
1 68
13 29
28 43
4 7
4 76
18 95
8 68
0 65
1 99
28 98
12 13
2 61
0 22
1 84
7 97
17 35
24 30
23 92
19 84
22 99
4 55
13 51
18 4
24 6
14 91
24 32
25 88
10 49
3 66
15 81
18 42
2 84
16 84
18 97
6 75
20 33
6 91
7 5
23 56
27 3
7 67
25 4
3 33
21 18
9 38
0 66
0 20
24 4
11 26
13 25
8 49
20 35
12 46
